50
    1   485   485
    2    94    94
    3   326   326
    4     6     6
    5   248   248
    6   416   416
    7   421   421
    8   492   492
    9   322   322
   10   149   149
   11   295   295
   12   237   237
   13    43    43
   14   457   457
   15   345   345
   16   315   315
   17   455   455
   18   446   446
   19   252   252
   20   422   422
   21     9     9
   22   291   291
   23   401   401
   24   359   359
   25   122   122
   26   167   167
   27    94    94
   28    98    98
   29   238   238
   30     7     7
   31    74    74
   32    44    44
   33   215   215
   34   334   334
   35   382   382
   36   266   266
   37   367   367
   38   494   494
   39   484   484
   40   393   393
   41   299   299
   42   133   133
   43   433   433
   44   131   131
   45   182   182
   46   428   428
   47    72    72
   48   200   200
   49   374   374
   50   117   117
2239
